%
% Generated Sudoku 16x16
% Density approximation: 0.50
%
x = array2d(1..n, 1..n, [
  12,   _,   _,   _,  10,  13,  16,   3,  14,   _,   7,   5,   _,   _,   1,   _,
   _,  10,   _,  13,   1,   6,   7,   2,   9,   _,   _,   _,   _,   4,  16,   3,
   _,   _,   _,  15,   _,   _,   _,  14,   _,   _,   _,   4,   _,   _,   6,   _,
   _,   7,  16,   2,   _,  11,   _,  15,  10,   _,   6,   3,   _,   _,   _,   _,
  13,   _,  12,   _,   _,   _,   _,   8,   _,   9,   _,   _,   4,  14,   7,   _,
   _,   _,   1,   8,   _,   _,  10,   _,   _,   7,   _,   _,  16,  11,   _,   9,
   4,   2,   3,   _,  14,   7,   _,  11,  12,   6,   8,   _,  15,   _,  10,   _,
   _,   9,   _,   _,   _,   _,  15,   _,   _,   3,  10,  14,   6,   _,  12,   _,
   8,   _,   4,   3,   _,  15,   _,   5,   _,   _,  14,   _,   _,   _,   9,   _,
  10,   5,   _,   _,  16,   _,   2,   6,   _,   _,   1,   7,  12,   3,   _,   4,
  15,   1,  11,   _,   _,   8,  12,  10,   4,   _,   9,   2,   _,   _,   _,   7,
   2,   _,   _,   _,   _,   _,   _,   _,  13,   5,   _,   _,   8,  16,  15,   _,
   _,  11,   _,   _,  13,   4,   _,  12,   _,   _,   _,   _,   3,   _,   2,   _,
   9,   4,  10,   _,   8,   _,   _,   7,   3,   _,   _,   _,  11,  15,   _,   _,
   _,   _,   _,   _,   _,   _,  11,   9,   1,   _,   _,  16,   7,   6,   _,  14,
   _,  14,  15,   _,   _,   2,   3,   1,   8,  13,  11,   6,   _,   _,   4,  12
]);

n = 16;
